157	32	4	45	
25	10	17	18

0	0	0	0	0	0	3	1	2	3
1	0	0	2	0	5	2	5	23
2	2	0	0	0	9	3	4	6	12
3	0	0	0	6	5	2	14	16
4	0	0	0	4	10	2	7	22
5	3	0	0	0	3	3	8	11	26
6	4	0	0	0	9	2	10	22
7	10	0	0	0	10	1	9
8	0	0	0	10	10	2	21	25
9	0	0	9	0	5	1	27
10	0	0	1	0	4	1	13
11	0	5	0	0	5	1	20
12	0	0	8	0	10	1	28
13	0	0	0	8	1	2	15	24
14	0	10	0	0	1	3	18	19	22
15	0	1	0	0	8	1	17
16	10	0	0	0	6	1	18
17	6	0	0	0	2	1	18
18	0	0	8	0	1	3	20	21	23
19	0	0	0	4	7	2	25	29
20	5	0	0	0	1	1	30
21	6	0	0	0	1	1	29
22	0	0	9	0	6	1	30
23	4	0	0	0	2	1	26
24	0	9	0	0	5	1	29
25	0	0	5	0	10	1	27
26	0	0	8	0	3	1	30
27	10	0	0	0	10	1	28
28	0	0	0	3	1	1	31
29	0	0	6	0	6	1	31
30	0	0	4	0	1	1	31
31	0	0	0	0	0	0
